c Arquivo convertido de jagmesh2.mtx
p edge 1009 2928
e 1 2
e 1 24
e 1 869
e 1 870
e 1 898
e 1 932
e 2 3
e 2 24
e 2 25
e 2 932
e 2 961
e 3 4
e 3 25
e 3 26
e 3 961
e 3 967
e 4 5
e 4 26
e 4 27
e 4 967
e 4 972
e 5 6
e 5 27
e 5 28
e 5 972
e 5 976
e 6 7
e 6 28
e 6 29
e 6 976
e 6 979
e 7 8
e 7 29
e 7 30
e 7 979
e 7 981
e 8 9
e 8 10
e 8 30
e 8 960
e 8 981
e 9 10
e 9 960
e 10 11
e 10 30
e 11 12
e 11 30
e 11 35
e 12 13
e 12 35
e 12 39
e 13 14
e 13 39
e 13 42
e 14 15
e 14 42
e 14 44
e 15 16
e 15 44
e 15 45
e 16 17
e 16 18
e 16 45
e 17 18
e 17 982
e 18 19
e 18 45
e 18 982
e 18 1009
e 19 20
e 19 43
e 19 45
e 19 1008
e 19 1009
e 20 21
e 20 40
e 20 43
e 20 1006
e 20 1008
e 21 22
e 21 36
e 21 40
e 21 1003
e 21 1006
e 22 23
e 22 31
e 22 36
e 22 999
e 22 1003
e 23 24
e 23 25
e 23 31
e 23 994
e 23 999
e 24 25
e 24 898
e 24 994
e 25 26
e 25 31
e 26 27
e 26 31
e 26 32
e 27 28
e 27 32
e 27 33
e 28 29
e 28 33
e 28 34
e 29 30
e 29 34
e 29 35
e 30 35
e 31 32
e 31 36
e 32 33
e 32 36
e 32 37
e 33 34
e 33 37
e 33 38
e 34 35
e 34 38
e 34 39
e 35 39
e 36 37
e 36 40
e 37 38
e 37 40
e 37 41
e 38 39
e 38 41
e 38 42
e 39 42
e 40 41
e 40 43
e 41 42
e 41 43
e 41 44
e 42 44
e 43 44
e 43 45
e 44 45
e 46 47
e 46 69
e 46 549
e 47 48
e 47 69
e 47 70
e 48 49
e 48 70
e 48 71
e 49 50
e 49 71
e 49 72
e 50 51
e 50 72
e 50 73
e 51 52
e 51 73
e 51 74
e 52 53
e 52 74
e 52 75
e 53 54
e 53 55
e 53 75
e 54 55
e 54 91
e 54 127
e 54 163
e 55 56
e 55 75
e 55 91
e 55 106
e 56 57
e 56 75
e 56 80
e 56 106
e 56 112
e 57 58
e 57 80
e 57 84
e 57 112
e 57 117
e 58 59
e 58 84
e 58 87
e 58 117
e 58 121
e 59 60
e 59 87
e 59 89
e 59 121
e 59 124
e 60 61
e 60 89
e 60 90
e 60 124
e 60 126
e 61 62
e 61 63
e 61 90
e 61 105
e 61 126
e 62 63
e 62 105
e 62 477
e 62 513
e 62 535
e 63 64
e 63 90
e 63 535
e 63 555
e 64 65
e 64 88
e 64 90
e 64 554
e 64 555
e 65 66
e 65 85
e 65 88
e 65 553
e 65 554
e 66 67
e 66 81
e 66 85
e 66 552
e 66 553
e 67 68
e 67 76
e 67 81
e 67 551
e 67 552
e 68 69
e 68 70
e 68 76
e 68 550
e 68 551
e 69 70
e 69 549
e 69 550
e 70 71
e 70 76
e 71 72
e 71 76
e 71 77
e 72 73
e 72 77
e 72 78
e 73 74
e 73 78
e 73 79
e 74 75
e 74 79
e 74 80
e 75 80
e 76 77
e 76 81
e 77 78
e 77 81
e 77 82
e 78 79
e 78 82
e 78 83
e 79 80
e 79 83
e 79 84
e 80 84
e 81 82
e 81 85
e 82 83
e 82 85
e 82 86
e 83 84
e 83 86
e 83 87
e 84 87
e 85 86
e 85 88
e 86 87
e 86 88
e 86 89
e 87 89
e 88 89
e 88 90
e 89 90
e 91 92
e 91 106
e 91 127
e 91 142
e 92 93
e 92 106
e 92 107
e 92 142
e 92 148
e 93 94
e 93 107
e 93 108
e 93 148
e 93 153
e 94 95
e 94 108
e 94 109
e 94 153
e 94 157
e 95 96
e 95 109
e 95 110
e 95 157
e 95 160
e 96 97
e 96 110
e 96 111
e 96 160
e 96 162
e 97 98
e 97 99
e 97 111
e 97 141
e 97 162
e 98 99
e 98 141
e 98 313
e 98 413
e 98 449
e 99 100
e 99 111
e 99 449
e 99 483
e 100 101
e 100 111
e 100 116
e 100 482
e 100 483
e 101 102
e 101 116
e 101 120
e 101 481
e 101 482
e 102 103
e 102 120
e 102 123
e 102 480
e 102 481
e 103 104
e 103 123
e 103 125
e 103 479
e 103 480
e 104 105
e 104 125
e 104 126
e 104 478
e 104 479
e 105 126
e 105 477
e 105 478
e 106 107
e 106 112
e 107 108
e 107 112
e 107 113
e 108 109
e 108 113
e 108 114
e 109 110
e 109 114
e 109 115
e 110 111
e 110 115
e 110 116
e 111 116
e 112 113
e 112 117
e 113 114
e 113 117
e 113 118
e 114 115
e 114 118
e 114 119
e 115 116
e 115 119
e 115 120
e 116 120
e 117 118
e 117 121
e 118 119
e 118 121
e 118 122
e 119 120
e 119 122
e 119 123
e 120 123
e 121 122
e 121 124
e 122 123
e 122 124
e 122 125
e 123 125
e 124 125
e 124 126
e 125 126
e 127 128
e 127 142
e 127 163
e 127 178
e 128 129
e 128 142
e 128 143
e 128 178
e 128 184
e 129 130
e 129 143
e 129 144
e 129 184
e 129 189
e 130 131
e 130 144
e 130 145
e 130 189
e 130 193
e 131 132
e 131 145
e 131 146
e 131 193
e 131 196
e 132 133
e 132 146
e 132 147
e 132 196
e 132 198
e 133 134
e 133 135
e 133 147
e 133 177
e 133 198
e 134 135
e 134 177
e 134 213
e 134 249
e 134 285
e 135 136
e 135 147
e 135 285
e 135 314
e 136 137
e 136 147
e 136 152
e 136 314
e 136 320
e 137 138
e 137 152
e 137 156
e 137 320
e 137 325
e 138 139
e 138 156
e 138 159
e 138 325
e 138 329
e 139 140
e 139 159
e 139 161
e 139 329
e 139 332
e 140 141
e 140 161
e 140 162
e 140 332
e 140 334
e 141 162
e 141 313
e 141 334
e 142 143
e 142 148
e 143 144
e 143 148
e 143 149
e 144 145
e 144 149
e 144 150
e 145 146
e 145 150
e 145 151
e 146 147
e 146 151
e 146 152
e 147 152
e 148 149
e 148 153
e 149 150
e 149 153
e 149 154
e 150 151
e 150 154
e 150 155
e 151 152
e 151 155
e 151 156
e 152 156
e 153 154
e 153 157
e 154 155
e 154 157
e 154 158
e 155 156
e 155 158
e 155 159
e 156 159
e 157 158
e 157 160
e 158 159
e 158 160
e 158 161
e 159 161
e 160 161
e 160 162
e 161 162
e 163 164
e 163 178
e 164 165
e 164 178
e 164 179
e 165 166
e 165 179
e 165 180
e 166 167
e 166 180
e 166 181
e 167 168
e 167 181
e 167 182
e 168 169
e 168 182
e 168 183
e 169 170
e 169 171
e 169 183
e 170 171
e 170 199
e 171 172
e 171 183
e 171 199
e 171 214
e 172 173
e 172 183
e 172 188
e 172 214
e 172 220
e 173 174
e 173 188
e 173 192
e 173 220
e 173 225
e 174 175
e 174 192
e 174 195
e 174 225
e 174 229
e 175 176
e 175 195
e 175 197
e 175 229
e 175 232
e 176 177
e 176 197
e 176 198
e 176 232
e 176 234
e 177 198
e 177 213
e 177 234
e 178 179
e 178 184
e 179 180
e 179 184
e 179 185
e 180 181
e 180 185
e 180 186
e 181 182
e 181 186
e 181 187
e 182 183
e 182 187
e 182 188
e 183 188
e 184 185
e 184 189
e 185 186
e 185 189
e 185 190
e 186 187
e 186 190
e 186 191
e 187 188
e 187 191
e 187 192
e 188 192
e 189 190
e 189 193
e 190 191
e 190 193
e 190 194
e 191 192
e 191 194
e 191 195
e 192 195
e 193 194
e 193 196
e 194 195
e 194 196
e 194 197
e 195 197
e 196 197
e 196 198
e 197 198
e 199 200
e 199 214
e 200 201
e 200 214
e 200 215
e 201 202
e 201 215
e 201 216
e 202 203
e 202 216
e 202 217
e 203 204
e 203 217
e 203 218
e 204 205
e 204 218
e 204 219
e 205 206
e 205 207
e 205 219
e 206 207
e 206 235
e 207 208
e 207 219
e 207 235
e 207 255
e 208 209
e 208 219
e 208 224
e 208 254
e 208 255
e 209 210
e 209 224
e 209 228
e 209 253
e 209 254
e 210 211
e 210 228
e 210 231
e 210 252
e 210 253
e 211 212
e 211 231
e 211 233
e 211 251
e 211 252
e 212 213
e 212 233
e 212 234
e 212 250
e 212 251
e 213 234
e 213 249
e 213 250
e 214 215
e 214 220
e 215 216
e 215 220
e 215 221
e 216 217
e 216 221
e 216 222
e 217 218
e 217 222
e 217 223
e 218 219
e 218 223
e 218 224
e 219 224
e 220 221
e 220 225
e 221 222
e 221 225
e 221 226
e 222 223
e 222 226
e 222 227
e 223 224
e 223 227
e 223 228
e 224 228
e 225 226
e 225 229
e 226 227
e 226 229
e 226 230
e 227 228
e 227 230
e 227 231
e 228 231
e 229 230
e 229 232
e 230 231
e 230 232
e 230 233
e 231 233
e 232 233
e 232 234
e 233 234
e 235 236
e 235 255
e 236 237
e 236 255
e 236 260
e 237 238
e 237 260
e 237 264
e 238 239
e 238 264
e 238 267
e 239 240
e 239 267
e 239 269
e 240 241
e 240 269
e 240 270
e 241 242
e 241 243
e 241 270
e 242 243
e 242 271
e 242 335
e 243 244
e 243 270
e 243 271
e 243 291
e 244 245
e 244 268
e 244 270
e 244 290
e 244 291
e 245 246
e 245 265
e 245 268
e 245 289
e 245 290
e 246 247
e 246 261
e 246 265
e 246 288
e 246 289
e 247 248
e 247 256
e 247 261
e 247 287
e 247 288
e 248 249
e 248 250
e 248 256
e 248 286
e 248 287
e 249 250
e 249 285
e 249 286
e 250 251
e 250 256
e 251 252
e 251 256
e 251 257
e 252 253
e 252 257
e 252 258
e 253 254
e 253 258
e 253 259
e 254 255
e 254 259
e 254 260
e 255 260
e 256 257
e 256 261
e 257 258
e 257 261
e 257 262
e 258 259
e 258 262
e 258 263
e 259 260
e 259 263
e 259 264
e 260 264
e 261 262
e 261 265
e 262 263
e 262 265
e 262 266
e 263 264
e 263 266
e 263 267
e 264 267
e 265 266
e 265 268
e 266 267
e 266 268
e 266 269
e 267 269
e 268 269
e 268 270
e 269 270
e 271 272
e 271 291
e 271 335
e 271 355
e 272 273
e 272 291
e 272 296
e 272 354
e 272 355
e 273 274
e 273 296
e 273 300
e 273 353
e 273 354
e 274 275
e 274 300
e 274 303
e 274 352
e 274 353
e 275 276
e 275 303
e 275 305
e 275 351
e 275 352
e 276 277
e 276 305
e 276 306
e 276 350
e 276 351
e 277 278
e 277 279
e 277 306
e 277 349
e 277 350
e 278 279
e 278 307
e 278 349
e 278 385
e 279 280
e 279 306
e 279 307
e 279 319
e 280 281
e 280 304
e 280 306
e 280 318
e 280 319
e 281 282
e 281 301
e 281 304
e 281 317
e 281 318
e 282 283
e 282 297
e 282 301
e 282 316
e 282 317
e 283 284
e 283 292
e 283 297
e 283 315
e 283 316
e 284 285
e 284 286
e 284 292
e 284 314
e 284 315
e 285 286
e 285 314
e 286 287
e 286 292
e 287 288
e 287 292
e 287 293
e 288 289
e 288 293
e 288 294
e 289 290
e 289 294
e 289 295
e 290 291
e 290 295
e 290 296
e 291 296
e 292 293
e 292 297
e 293 294
e 293 297
e 293 298
e 294 295
e 294 298
e 294 299
e 295 296
e 295 299
e 295 300
e 296 300
e 297 298
e 297 301
e 298 299
e 298 301
e 298 302
e 299 300
e 299 302
e 299 303
e 300 303
e 301 302
e 301 304
e 302 303
e 302 304
e 302 305
e 303 305
e 304 305
e 304 306
e 305 306
e 307 308
e 307 319
e 307 385
e 307 419
e 308 309
e 308 319
e 308 324
e 308 418
e 308 419
e 309 310
e 309 324
e 309 328
e 309 417
e 309 418
e 310 311
e 310 328
e 310 331
e 310 416
e 310 417
e 311 312
e 311 331
e 311 333
e 311 415
e 311 416
e 312 313
e 312 333
e 312 334
e 312 414
e 312 415
e 313 334
e 313 413
e 313 414
e 314 315
e 314 320
e 315 316
e 315 320
e 315 321
e 316 317
e 316 321
e 316 322
e 317 318
e 317 322
e 317 323
e 318 319
e 318 323
e 318 324
e 319 324
e 320 321
e 320 325
e 321 322
e 321 325
e 321 326
e 322 323
e 322 326
e 322 327
e 323 324
e 323 327
e 323 328
e 324 328
e 325 326
e 325 329
e 326 327
e 326 329
e 326 330
e 327 328
e 327 330
e 327 331
e 328 331
e 329 330
e 329 332
e 330 331
e 330 332
e 330 333
e 331 333
e 332 333
e 332 334
e 333 334
e 335 336
e 335 355
e 336 337
e 336 355
e 336 360
e 337 338
e 337 360
e 337 364
e 338 339
e 338 364
e 338 367
e 339 340
e 339 367
e 339 369
e 340 341
e 340 369
e 340 370
e 341 342
e 341 343
e 341 370
e 342 343
e 342 371
e 342 699
e 343 344
e 343 370
e 343 371
e 343 391
e 344 345
e 344 368
e 344 370
e 344 390
e 344 391
e 345 346
e 345 365
e 345 368
e 345 389
e 345 390
e 346 347
e 346 361
e 346 365
e 346 388
e 346 389
e 347 348
e 347 356
e 347 361
e 347 387
e 347 388
e 348 349
e 348 350
e 348 356
e 348 386
e 348 387
e 349 350
e 349 385
e 349 386
e 350 351
e 350 356
e 351 352
e 351 356
e 351 357
e 352 353
e 352 357
e 352 358
e 353 354
e 353 358
e 353 359
e 354 355
e 354 359
e 354 360
e 355 360
e 356 357
e 356 361
e 357 358
e 357 361
e 357 362
e 358 359
e 358 362
e 358 363
e 359 360
e 359 363
e 359 364
e 360 364
e 361 362
e 361 365
e 362 363
e 362 365
e 362 366
e 363 364
e 363 366
e 363 367
e 364 367
e 365 366
e 365 368
e 366 367
e 366 368
e 366 369
e 367 369
e 368 369
e 368 370
e 369 370
e 371 372
e 371 391
e 371 699
e 371 711
e 372 373
e 372 391
e 372 396
e 372 710
e 372 711
e 373 374
e 373 396
e 373 400
e 373 709
e 373 710
e 374 375
e 374 400
e 374 403
e 374 708
e 374 709
e 375 376
e 375 403
e 375 405
e 375 707
e 375 708
e 376 377
e 376 405
e 376 406
e 376 706
e 376 707
e 377 378
e 377 379
e 377 406
e 377 663
e 377 706
e 378 379
e 378 407
e 378 435
e 378 635
e 378 663
e 379 380
e 379 406
e 379 407
e 379 434
e 380 381
e 380 404
e 380 406
e 380 433
e 380 434
e 381 382
e 381 401
e 381 404
e 381 431
e 381 433
e 382 383
e 382 397
e 382 401
e 382 428
e 382 431
e 383 384
e 383 392
e 383 397
e 383 424
e 383 428
e 384 385
e 384 386
e 384 392
e 384 419
e 384 424
e 385 386
e 385 419
e 386 387
e 386 392
e 387 388
e 387 392
e 387 393
e 388 389
e 388 393
e 388 394
e 389 390
e 389 394
e 389 395
e 390 391
e 390 395
e 390 396
e 391 396
e 392 393
e 392 397
e 393 394
e 393 397
e 393 398
e 394 395
e 394 398
e 394 399
e 395 396
e 395 399
e 395 400
e 396 400
e 397 398
e 397 401
e 398 399
e 398 401
e 398 402
e 399 400
e 399 402
e 399 403
e 400 403
e 401 402
e 401 404
e 402 403
e 402 404
e 402 405
e 403 405
e 404 405
e 404 406
e 405 406
e 407 408
e 407 434
e 407 435
e 407 455
e 408 409
e 408 432
e 408 434
e 408 454
e 408 455
e 409 410
e 409 429
e 409 432
e 409 453
e 409 454
e 410 411
e 410 425
e 410 429
e 410 452
e 410 453
e 411 412
e 411 420
e 411 425
e 411 451
e 411 452
e 412 413
e 412 414
e 412 420
e 412 450
e 412 451
e 413 414
e 413 449
e 413 450
e 414 415
e 414 420
e 415 416
e 415 420
e 415 421
e 416 417
e 416 421
e 416 422
e 417 418
e 417 422
e 417 423
e 418 419
e 418 423
e 418 424
e 419 424
e 420 421
e 420 425
e 421 422
e 421 425
e 421 426
e 422 423
e 422 426
e 422 427
e 423 424
e 423 427
e 423 428
e 424 428
e 425 426
e 425 429
e 426 427
e 426 429
e 426 430
e 427 428
e 427 430
e 427 431
e 428 431
e 429 430
e 429 432
e 430 431
e 430 432
e 430 433
e 431 433
e 432 433
e 432 434
e 433 434
e 435 436
e 435 455
e 435 635
e 435 647
e 436 437
e 436 455
e 436 460
e 436 646
e 436 647
e 437 438
e 437 460
e 437 464
e 437 645
e 437 646
e 438 439
e 438 464
e 438 467
e 438 644
e 438 645
e 439 440
e 439 467
e 439 469
e 439 643
e 439 644
e 440 441
e 440 469
e 440 470
e 440 642
e 440 643
e 441 442
e 441 443
e 441 470
e 441 599
e 441 642
e 442 443
e 442 471
e 442 499
e 442 599
e 443 444
e 443 470
e 443 471
e 443 498
e 444 445
e 444 468
e 444 470
e 444 497
e 444 498
e 445 446
e 445 465
e 445 468
e 445 495
e 445 497
e 446 447
e 446 461
e 446 465
e 446 492
e 446 495
e 447 448
e 447 456
e 447 461
e 447 488
e 447 492
e 448 449
e 448 450
e 448 456
e 448 483
e 448 488
e 449 450
e 449 483
e 450 451
e 450 456
e 451 452
e 451 456
e 451 457
e 452 453
e 452 457
e 452 458
e 453 454
e 453 458
e 453 459
e 454 455
e 454 459
e 454 460
e 455 460
e 456 457
e 456 461
e 457 458
e 457 461
e 457 462
e 458 459
e 458 462
e 458 463
e 459 460
e 459 463
e 459 464
e 460 464
e 461 462
e 461 465
e 462 463
e 462 465
e 462 466
e 463 464
e 463 466
e 463 467
e 464 467
e 465 466
e 465 468
e 466 467
e 466 468
e 466 469
e 467 469
e 468 469
e 468 470
e 469 470
e 471 472
e 471 498
e 471 499
e 471 519
e 472 473
e 472 496
e 472 498
e 472 518
e 472 519
e 473 474
e 473 493
e 473 496
e 473 517
e 473 518
e 474 475
e 474 489
e 474 493
e 474 516
e 474 517
e 475 476
e 475 484
e 475 489
e 475 515
e 475 516
e 476 477
e 476 478
e 476 484
e 476 514
e 476 515
e 477 478
e 477 513
e 477 514
e 478 479
e 478 484
e 479 480
e 479 484
e 479 485
e 480 481
e 480 485
e 480 486
e 481 482
e 481 486
e 481 487
e 482 483
e 482 487
e 482 488
e 483 488
e 484 485
e 484 489
e 485 486
e 485 489
e 485 490
e 486 487
e 486 490
e 486 491
e 487 488
e 487 491
e 487 492
e 488 492
e 489 490
e 489 493
e 490 491
e 490 493
e 490 494
e 491 492
e 491 494
e 491 495
e 492 495
e 493 494
e 493 496
e 494 495
e 494 496
e 494 497
e 495 497
e 496 497
e 496 498
e 497 498
e 499 500
e 499 519
e 499 599
e 499 614
e 500 501
e 500 519
e 500 524
e 500 614
e 500 620
e 501 502
e 501 524
e 501 528
e 501 620
e 501 625
e 502 503
e 502 528
e 502 531
e 502 625
e 502 629
e 503 504
e 503 531
e 503 533
e 503 629
e 503 632
e 504 505
e 504 533
e 504 534
e 504 632
e 504 634
e 505 506
e 505 507
e 505 534
e 505 613
e 505 634
e 506 507
e 506 571
e 506 613
e 506 805
e 506 876
e 507 508
e 507 534
e 507 571
e 507 583
e 508 509
e 508 532
e 508 534
e 508 582
e 508 583
e 509 510
e 509 529
e 509 532
e 509 581
e 509 582
e 510 511
e 510 525
e 510 529
e 510 580
e 510 581
e 511 512
e 511 520
e 511 525
e 511 579
e 511 580
e 512 513
e 512 514
e 512 520
e 512 578
e 512 579
e 513 514
e 513 535
e 513 578
e 514 515
e 514 520
e 515 516
e 515 520
e 515 521
e 516 517
e 516 521
e 516 522
e 517 518
e 517 522
e 517 523
e 518 519
e 518 523
e 518 524
e 519 524
e 520 521
e 520 525
e 521 522
e 521 525
e 521 526
e 522 523
e 522 526
e 522 527
e 523 524
e 523 527
e 523 528
e 524 528
e 525 526
e 525 529
e 526 527
e 526 529
e 526 530
e 527 528
e 527 530
e 527 531
e 528 531
e 529 530
e 529 532
e 530 531
e 530 532
e 530 533
e 531 533
e 532 533
e 532 534
e 533 534
e 535 536
e 535 555
e 535 578
e 536 537
e 536 555
e 536 560
e 536 578
e 536 584
e 537 538
e 537 560
e 537 564
e 537 584
e 537 589
e 538 539
e 538 564
e 538 567
e 538 589
e 538 593
e 539 540
e 539 567
e 539 569
e 539 593
e 539 596
e 540 541
e 540 569
e 540 570
e 540 596
e 540 598
e 541 542
e 541 543
e 541 570
e 541 577
e 541 598
e 542 543
e 542 577
e 542 904
e 542 988
e 543 544
e 543 570
e 544 545
e 544 568
e 544 570
e 545 546
e 545 565
e 545 568
e 546 547
e 546 561
e 546 565
e 547 548
e 547 556
e 547 561
e 548 549
e 548 550
e 548 556
e 549 550
e 550 551
e 550 556
e 551 552
e 551 556
e 551 557
e 552 553
e 552 557
e 552 558
e 553 554
e 553 558
e 553 559
e 554 555
e 554 559
e 554 560
e 555 560
e 556 557
e 556 561
e 557 558
e 557 561
e 557 562
e 558 559
e 558 562
e 558 563
e 559 560
e 559 563
e 559 564
e 560 564
e 561 562
e 561 565
e 562 563
e 562 565
e 562 566
e 563 564
e 563 566
e 563 567
e 564 567
e 565 566
e 565 568
e 566 567
e 566 568
e 566 569
e 567 569
e 568 569
e 568 570
e 569 570
e 571 572
e 571 583
e 571 876
e 571 910
e 572 573
e 572 583
e 572 588
e 572 909
e 572 910
e 573 574
e 573 588
e 573 592
e 573 908
e 573 909
e 574 575
e 574 592
e 574 595
e 574 907
e 574 908
e 575 576
e 575 595
e 575 597
e 575 906
e 575 907
e 576 577
e 576 597
e 576 598
e 576 905
e 576 906
e 577 598
e 577 904
e 577 905
e 578 579
e 578 584
e 579 580
e 579 584
e 579 585
e 580 581
e 580 585
e 580 586
e 581 582
e 581 586
e 581 587
e 582 583
e 582 587
e 582 588
e 583 588
e 584 585
e 584 589
e 585 586
e 585 589
e 585 590
e 586 587
e 586 590
e 586 591
e 587 588
e 587 591
e 587 592
e 588 592
e 589 590
e 589 593
e 590 591
e 590 593
e 590 594
e 591 592
e 591 594
e 591 595
e 592 595
e 593 594
e 593 596
e 594 595
e 594 596
e 594 597
e 595 597
e 596 597
e 596 598
e 597 598
e 599 600
e 599 614
e 599 642
e 600 601
e 600 614
e 600 615
e 600 642
e 600 648
e 601 602
e 601 615
e 601 616
e 601 648
e 601 653
e 602 603
e 602 616
e 602 617
e 602 653
e 602 657
e 603 604
e 603 617
e 603 618
e 603 657
e 603 660
e 604 605
e 604 618
e 604 619
e 604 660
e 604 662
e 605 606
e 605 607
e 605 619
e 605 641
e 605 662
e 606 607
e 606 641
e 606 677
e 606 741
e 606 777
e 607 608
e 607 619
e 607 777
e 607 811
e 608 609
e 608 619
e 608 624
e 608 810
e 608 811
e 609 610
e 609 624
e 609 628
e 609 809
e 609 810
e 610 611
e 610 628
e 610 631
e 610 808
e 610 809
e 611 612
e 611 631
e 611 633
e 611 807
e 611 808
e 612 613
e 612 633
e 612 634
e 612 806
e 612 807
e 613 634
e 613 805
e 613 806
e 614 615
e 614 620
e 615 616
e 615 620
e 615 621
e 616 617
e 616 621
e 616 622
e 617 618
e 617 622
e 617 623
e 618 619
e 618 623
e 618 624
e 619 624
e 620 621
e 620 625
e 621 622
e 621 625
e 621 626
e 622 623
e 622 626
e 622 627
e 623 624
e 623 627
e 623 628
e 624 628
e 625 626
e 625 629
e 626 627
e 626 629
e 626 630
e 627 628
e 627 630
e 627 631
e 628 631
e 629 630
e 629 632
e 630 631
e 630 632
e 630 633
e 631 633
e 632 633
e 632 634
e 633 634
e 635 636
e 635 647
e 635 663
e 635 678
e 636 637
e 636 647
e 636 652
e 636 678
e 636 684
e 637 638
e 637 652
e 637 656
e 637 684
e 637 689
e 638 639
e 638 656
e 638 659
e 638 689
e 638 693
e 639 640
e 639 659
e 639 661
e 639 693
e 639 696
e 640 641
e 640 661
e 640 662
e 640 696
e 640 698
e 641 662
e 641 677
e 641 698
e 642 643
e 642 648
e 643 644
e 643 648
e 643 649
e 644 645
e 644 649
e 644 650
e 645 646
e 645 650
e 645 651
e 646 647
e 646 651
e 646 652
e 647 652
e 648 649
e 648 653
e 649 650
e 649 653
e 649 654
e 650 651
e 650 654
e 650 655
e 651 652
e 651 655
e 651 656
e 652 656
e 653 654
e 653 657
e 654 655
e 654 657
e 654 658
e 655 656
e 655 658
e 655 659
e 656 659
e 657 658
e 657 660
e 658 659
e 658 660
e 658 661
e 659 661
e 660 661
e 660 662
e 661 662
e 663 664
e 663 678
e 663 706
e 664 665
e 664 678
e 664 679
e 664 706
e 664 712
e 665 666
e 665 679
e 665 680
e 665 712
e 665 717
e 666 667
e 666 680
e 666 681
e 666 717
e 666 721
e 667 668
e 667 681
e 667 682
e 667 721
e 667 724
e 668 669
e 668 682
e 668 683
e 668 724
e 668 726
e 669 670
e 669 671
e 669 683
e 669 705
e 669 726
e 670 671
e 670 705
e 670 727
e 671 672
e 671 683
e 671 727
e 671 747
e 672 673
e 672 683
e 672 688
e 672 746
e 672 747
e 673 674
e 673 688
e 673 692
e 673 745
e 673 746
e 674 675
e 674 692
e 674 695
e 674 744
e 674 745
e 675 676
e 675 695
e 675 697
e 675 743
e 675 744
e 676 677
e 676 697
e 676 698
e 676 742
e 676 743
e 677 698
e 677 741
e 677 742
e 678 679
e 678 684
e 679 680
e 679 684
e 679 685
e 680 681
e 680 685
e 680 686
e 681 682
e 681 686
e 681 687
e 682 683
e 682 687
e 682 688
e 683 688
e 684 685
e 684 689
e 685 686
e 685 689
e 685 690
e 686 687
e 686 690
e 686 691
e 687 688
e 687 691
e 687 692
e 688 692
e 689 690
e 689 693
e 690 691
e 690 693
e 690 694
e 691 692
e 691 694
e 691 695
e 692 695
e 693 694
e 693 696
e 694 695
e 694 696
e 694 697
e 695 697
e 696 697
e 696 698
e 697 698
e 699 700
e 699 711
e 700 701
e 700 711
e 700 716
e 701 702
e 701 716
e 701 720
e 702 703
e 702 720
e 702 723
e 703 704
e 703 723
e 703 725
e 704 705
e 704 725
e 704 726
e 705 726
e 706 707
e 706 712
e 707 708
e 707 712
e 707 713
e 708 709
e 708 713
e 708 714
e 709 710
e 709 714
e 709 715
e 710 711
e 710 715
e 710 716
e 711 716
e 712 713
e 712 717
e 713 714
e 713 717
e 713 718
e 714 715
e 714 718
e 714 719
e 715 716
e 715 719
e 715 720
e 716 720
e 717 718
e 717 721
e 718 719
e 718 721
e 718 722
e 719 720
e 719 722
e 719 723
e 720 723
e 721 722
e 721 724
e 722 723
e 722 724
e 722 725
e 723 725
e 724 725
e 724 726
e 725 726
e 727 728
e 727 747
e 728 729
e 728 747
e 728 752
e 729 730
e 729 752
e 729 756
e 730 731
e 730 756
e 730 759
e 731 732
e 731 759
e 731 761
e 732 733
e 732 761
e 732 762
e 733 734
e 733 735
e 733 762
e 734 735
e 734 763
e 734 827
e 735 736
e 735 762
e 735 763
e 735 783
e 736 737
e 736 760
e 736 762
e 736 782
e 736 783
e 737 738
e 737 757
e 737 760
e 737 781
e 737 782
e 738 739
e 738 753
e 738 757
e 738 780
e 738 781
e 739 740
e 739 748
e 739 753
e 739 779
e 739 780
e 740 741
e 740 742
e 740 748
e 740 778
e 740 779
e 741 742
e 741 777
e 741 778
e 742 743
e 742 748
e 743 744
e 743 748
e 743 749
e 744 745
e 744 749
e 744 750
e 745 746
e 745 750
e 745 751
e 746 747
e 746 751
e 746 752
e 747 752
e 748 749
e 748 753
e 749 750
e 749 753
e 749 754
e 750 751
e 750 754
e 750 755
e 751 752
e 751 755
e 751 756
e 752 756
e 753 754
e 753 757
e 754 755
e 754 757
e 754 758
e 755 756
e 755 758
e 755 759
e 756 759
e 757 758
e 757 760
e 758 759
e 758 760
e 758 761
e 759 761
e 760 761
e 760 762
e 761 762
e 763 764
e 763 783
e 763 827
e 763 847
e 764 765
e 764 783
e 764 788
e 764 846
e 764 847
e 765 766
e 765 788
e 765 792
e 765 845
e 765 846
e 766 767
e 766 792
e 766 795
e 766 844
e 766 845
e 767 768
e 767 795
e 767 797
e 767 843
e 767 844
e 768 769
e 768 797
e 768 798
e 768 842
e 768 843
e 769 770
e 769 771
e 769 798
e 769 841
e 769 842
e 770 771
e 770 799
e 770 841
e 770 863
e 771 772
e 771 798
e 771 799
e 771 826
e 772 773
e 772 796
e 772 798
e 772 825
e 772 826
e 773 774
e 773 793
e 773 796
e 773 823
e 773 825
e 774 775
e 774 789
e 774 793
e 774 820
e 774 823
e 775 776
e 775 784
e 775 789
e 775 816
e 775 820
e 776 777
e 776 778
e 776 784
e 776 811
e 776 816
e 777 778
e 777 811
e 778 779
e 778 784
e 779 780
e 779 784
e 779 785
e 780 781
e 780 785
e 780 786
e 781 782
e 781 786
e 781 787
e 782 783
e 782 787
e 782 788
e 783 788
e 784 785
e 784 789
e 785 786
e 785 789
e 785 790
e 786 787
e 786 790
e 786 791
e 787 788
e 787 791
e 787 792
e 788 792
e 789 790
e 789 793
e 790 791
e 790 793
e 790 794
e 791 792
e 791 794
e 791 795
e 792 795
e 793 794
e 793 796
e 794 795
e 794 796
e 794 797
e 795 797
e 796 797
e 796 798
e 797 798
e 799 800
e 799 826
e 799 863
e 799 882
e 800 801
e 800 824
e 800 826
e 800 881
e 800 882
e 801 802
e 801 821
e 801 824
e 801 880
e 801 881
e 802 803
e 802 817
e 802 821
e 802 879
e 802 880
e 803 804
e 803 812
e 803 817
e 803 878
e 803 879
e 804 805
e 804 806
e 804 812
e 804 877
e 804 878
e 805 806
e 805 876
e 805 877
e 806 807
e 806 812
e 807 808
e 807 812
e 807 813
e 808 809
e 808 813
e 808 814
e 809 810
e 809 814
e 809 815
e 810 811
e 810 815
e 810 816
e 811 816
e 812 813
e 812 817
e 813 814
e 813 817
e 813 818
e 814 815
e 814 818
e 814 819
e 815 816
e 815 819
e 815 820
e 816 820
e 817 818
e 817 821
e 818 819
e 818 821
e 818 822
e 819 820
e 819 822
e 819 823
e 820 823
e 821 822
e 821 824
e 822 823
e 822 824
e 822 825
e 823 825
e 824 825
e 824 826
e 825 826
e 827 828
e 827 847
e 828 829
e 828 847
e 828 852
e 829 830
e 829 852
e 829 856
e 830 831
e 830 856
e 830 859
e 831 832
e 831 859
e 831 861
e 832 833
e 832 861
e 832 862
e 833 834
e 833 835
e 833 862
e 834 835
e 834 926
e 834 954
e 835 836
e 835 862
e 835 926
e 835 938
e 836 837
e 836 860
e 836 862
e 836 937
e 836 938
e 837 838
e 837 857
e 837 860
e 837 936
e 837 937
e 838 839
e 838 853
e 838 857
e 838 935
e 838 936
e 839 840
e 839 848
e 839 853
e 839 934
e 839 935
e 840 841
e 840 842
e 840 848
e 840 933
e 840 934
e 841 842
e 841 863
e 841 933
e 842 843
e 842 848
e 843 844
e 843 848
e 843 849
e 844 845
e 844 849
e 844 850
e 845 846
e 845 850
e 845 851
e 846 847
e 846 851
e 846 852
e 847 852
e 848 849
e 848 853
e 849 850
e 849 853
e 849 854
e 850 851
e 850 854
e 850 855
e 851 852
e 851 855
e 851 856
e 852 856
e 853 854
e 853 857
e 854 855
e 854 857
e 854 858
e 855 856
e 855 858
e 855 859
e 856 859
e 857 858
e 857 860
e 858 859
e 858 860
e 858 861
e 859 861
e 860 861
e 860 862
e 861 862
e 863 864
e 863 882
e 863 933
e 864 865
e 864 882
e 864 887
e 864 933
e 864 939
e 865 866
e 865 887
e 865 891
e 865 939
e 865 944
e 866 867
e 866 891
e 866 894
e 866 944
e 866 948
e 867 868
e 867 894
e 867 896
e 867 948
e 867 951
e 868 869
e 868 896
e 868 897
e 868 951
e 868 953
e 869 870
e 869 897
e 869 932
e 869 953
e 870 871
e 870 897
e 870 898
e 870 925
e 871 872
e 871 895
e 871 897
e 871 924
e 871 925
e 872 873
e 872 892
e 872 895
e 872 922
e 872 924
e 873 874
e 873 888
e 873 892
e 873 919
e 873 922
e 874 875
e 874 883
e 874 888
e 874 915
e 874 919
e 875 876
e 875 877
e 875 883
e 875 910
e 875 915
e 876 877
e 876 910
e 877 878
e 877 883
e 878 879
e 878 883
e 878 884
e 879 880
e 879 884
e 879 885
e 880 881
e 880 885
e 880 886
e 881 882
e 881 886
e 881 887
e 882 887
e 883 884
e 883 888
e 884 885
e 884 888
e 884 889
e 885 886
e 885 889
e 885 890
e 886 887
e 886 890
e 886 891
e 887 891
e 888 889
e 888 892
e 889 890
e 889 892
e 889 893
e 890 891
e 890 893
e 890 894
e 891 894
e 892 893
e 892 895
e 893 894
e 893 895
e 893 896
e 894 896
e 895 896
e 895 897
e 896 897
e 898 899
e 898 925
e 898 994
e 899 900
e 899 923
e 899 925
e 899 993
e 899 994
e 900 901
e 900 920
e 900 923
e 900 992
e 900 993
e 901 902
e 901 916
e 901 920
e 901 991
e 901 992
e 902 903
e 902 911
e 902 916
e 902 990
e 902 991
e 903 904
e 903 905
e 903 911
e 903 989
e 903 990
e 904 905
e 904 988
e 904 989
e 905 906
e 905 911
e 906 907
e 906 911
e 906 912
e 907 908
e 907 912
e 907 913
e 908 909
e 908 913
e 908 914
e 909 910
e 909 914
e 909 915
e 910 915
e 911 912
e 911 916
e 912 913
e 912 916
e 912 917
e 913 914
e 913 917
e 913 918
e 914 915
e 914 918
e 914 919
e 915 919
e 916 917
e 916 920
e 917 918
e 917 920
e 917 921
e 918 919
e 918 921
e 918 922
e 919 922
e 920 921
e 920 923
e 921 922
e 921 923
e 921 924
e 922 924
e 923 924
e 923 925
e 924 925
e 926 927
e 926 938
e 926 954
e 926 966
e 927 928
e 927 938
e 927 943
e 927 965
e 927 966
e 928 929
e 928 943
e 928 947
e 928 964
e 928 965
e 929 930
e 929 947
e 929 950
e 929 963
e 929 964
e 930 931
e 930 950
e 930 952
e 930 962
e 930 963
e 931 932
e 931 952
e 931 953
e 931 961
e 931 962
e 932 953
e 932 961
e 933 934
e 933 939
e 934 935
e 934 939
e 934 940
e 935 936
e 935 940
e 935 941
e 936 937
e 936 941
e 936 942
e 937 938
e 937 942
e 937 943
e 938 943
e 939 940
e 939 944
e 940 941
e 940 944
e 940 945
e 941 942
e 941 945
e 941 946
e 942 943
e 942 946
e 942 947
e 943 947
e 944 945
e 944 948
e 945 946
e 945 948
e 945 949
e 946 947
e 946 949
e 946 950
e 947 950
e 948 949
e 948 951
e 949 950
e 949 951
e 949 952
e 950 952
e 951 952
e 951 953
e 952 953
e 954 955
e 954 966
e 955 956
e 955 966
e 955 971
e 956 957
e 956 971
e 956 975
e 957 958
e 957 975
e 957 978
e 958 959
e 958 978
e 958 980
e 959 960
e 959 980
e 959 981
e 960 981
e 961 962
e 961 967
e 962 963
e 962 967
e 962 968
e 963 964
e 963 968
e 963 969
e 964 965
e 964 969
e 964 970
e 965 966
e 965 970
e 965 971
e 966 971
e 967 968
e 967 972
e 968 969
e 968 972
e 968 973
e 969 970
e 969 973
e 969 974
e 970 971
e 970 974
e 970 975
e 971 975
e 972 973
e 972 976
e 973 974
e 973 976
e 973 977
e 974 975
e 974 977
e 974 978
e 975 978
e 976 977
e 976 979
e 977 978
e 977 979
e 977 980
e 978 980
e 979 980
e 979 981
e 980 981
e 982 983
e 982 1009
e 983 984
e 983 1007
e 983 1009
e 984 985
e 984 1004
e 984 1007
e 985 986
e 985 1000
e 985 1004
e 986 987
e 986 995
e 986 1000
e 987 988
e 987 989
e 987 995
e 988 989
e 989 990
e 989 995
e 990 991
e 990 995
e 990 996
e 991 992
e 991 996
e 991 997
e 992 993
e 992 997
e 992 998
e 993 994
e 993 998
e 993 999
e 994 999
e 995 996
e 995 1000
e 996 997
e 996 1000
e 996 1001
e 997 998
e 997 1001
e 997 1002
e 998 999
e 998 1002
e 998 1003
e 999 1003
e 1000 1001
e 1000 1004
e 1001 1002
e 1001 1004
e 1001 1005
e 1002 1003
e 1002 1005
e 1002 1006
e 1003 1006
e 1004 1005
e 1004 1007
e 1005 1006
e 1005 1007
e 1005 1008
e 1006 1008
e 1007 1008
e 1007 1009
e 1008 1009
